C4
1.0
        2.4672913551         0.0000000000         0.0000000000
       -1.2336459621         2.1367368278         0.0000000000
        0.0000000000         0.0000000000         20.8030729294
    C
    2
Cartesian
     0.000000000         0.000000000         10.291690204
    -0.000000190         1.424491261         10.291690204
