InSe
1.0
        4.0417342186         0.0000000000         0.0000000000
       -2.0208671093         3.5002445087         0.0000000000
        0.0000000000         0.0000000000        20.4284439087
   In   Se
    2    2
Cartesian
     2.020867170         1.166748204        11.854707040
     2.020867170         1.166748204         9.023736869
     0.000000000         2.333496409         7.953043530
     0.000000000         2.333496409        13.033138947
