P4
1.0
        3.2954862118         0.0000000000         0.0000000000
        0.0000000000         4.5436353683         0.0000000000
        0.0000000000         0.0000000000         20.930075645
    P
    4
Cartesian
     0.000000000         4.140091700         12.512760394         
     1.647743106         2.675361353         12.512760394         
     0.000000000         0.403543737         10.417314926         
     1.647743106         1.868273880         10.417314926         
