Sn1 S2
1.0
        3.6743056774         0.0000000000         0.0000000000
       -1.8371532624         3.1820418133         0.0000000000
        0.0000000000         0.0000000000         20.228831768
   Sn    S
    1    2
Cartesian
     0.000000000         0.000000000         11.114415884
    -0.000000282         2.121361272         12.576032890
     1.837152752         1.060680636          9.652798878
