C  F 
 1.0000000000000000
     2.2170920638629257   -1.2799484789719409    0.0000685715297726
     2.2170954568705739    1.2799559547247128    0.0000691246767629
     0.0006318765501920    0.0000078726944872   20.0844342445584125
 C   F  
   4   2
Cartesian
  4.4342564248204068  0.0000049509189190 10.1201076954463520
  1.4780990754223418  0.0000002576559013 10.6229560531894585
  2.9560518636169264  0.0000073102244499 12.6760069764220358
  1.4780181641774635  0.0000045196423189 12.1730245387764775
  4.4343838134585996  0.0000102068311808  8.7434578077353109
  2.9559539510841217  0.0000020633374329 14.0526257394520115
