MoS2 monolayer (2H)
1.0
        3.1800000668         0.0000000000         0.0000000000
       -1.5900000921         2.7539999007         0.0000000000
        0.0000000000         0.0000000000        20.0000000000
   Mo    S
    1    2
Cartesian
     1.590001578         0.917999009        10.000000000
    -0.000001650         1.836000809        11.666660309
    -0.000001650         1.836000809         8.333340287
