Ga2 S2
1.0
        3.5932474136         0.0000000000         0.0000000000
       -1.7966237068         3.1118435423         0.0000000000
        0.0000000000         0.0000000000        20.0146560669
   Ga    S
    2    2
Cartesian
     1.796623760         1.037281212        12.032374646
     1.796623760         1.037281212         9.583747409
     0.000000000         2.074562423        13.100541413
     0.000000000         2.074562423         8.515580643
